1256985
9,77,66,10,11,49,41,38,37,26,72,57,75,86,27,69,70,31,39,14,8,28,36,12,40,68,55,78,33,108,106,42,60,65,88,7,18,50,76,73,19,62,87,96,93,13,105,99,71,47,97,89,91,104,22,58,54,102,100,53,17,80,21,48,15,23,64,109,24,79,67,4,92,74,56,103,30,6,61,85,43,95,32,51,84,59,2,81,46,94,107,16,29,25,44,20,63,83,3,90,45,5,1,35,98,101,82,34,52